param n := 60;
param c := 10000
param : V : p w :=
   0	 485	 475
   1	 266	 256
   2	 279	 269
   3	 406	 396
   4	 274	 264
   5	 350	 340
   6	 478	 468
   7	 272	 262
   8	 280	 270
   9	 371	 361
  10	 310	 300
  11	 349	 339
  12	 454	 444
  13	 261	 251
  14	 315	 305
  15	 376	 366
  16	 262	 252
  17	 392	 382
  18	 419	 409
  19	 287	 277
  20	 324	 314
  21	 475	 465
  22	 270	 260
  23	 285	 275
  24	 457	 447
  25	 261	 251
  26	 312	 302
  27	 409	 399
  28	 307	 297
  29	 314	 304
  30	 433	 423
  31	 268	 258
  32	 329	 319
  33	 483	 473
  34	 270	 260
  35	 277	 267
  36	 436	 426
  37	 271	 261
  38	 323	 313
  39	 413	 403
  40	 299	 289
  41	 318	 308
  42	 412	 402
  43	 275	 265
  44	 343	 333
  45	 406	 396
  46	 267	 257
  47	 357	 347
  48	 421	 411
  49	 292	 282
  50	 317	 307
  51	 472	 462
  52	 268	 258
  53	 290	 280
  54	 422	 412
  55	 264	 254
  56	 344	 334
  57	 386	 376
  58	 265	 255
  59	 379	 369
;

set E :=
   0	   3
   0	   4
   0	   6
   0	   7
   0	   8
   0	  11
   0	  16
   0	  22
   0	  24
   0	  26
   0	  29
   0	  30
   0	  39
   0	  43
   0	  46
   0	  47
   0	  48
   0	  49
   0	  50
   0	  52
   0	  55
   0	  57
   0	  58
   0	  59
   1	   2
   1	   9
   1	  13
   1	  14
   1	  15
   1	  17
   1	  20
   1	  21
   1	  27
   1	  29
   1	  30
   1	  31
   1	  36
   1	  39
   1	  41
   1	  43
   1	  46
   1	  49
   1	  50
   1	  53
   1	  54
   1	  57
   1	  58
   2	   3
   2	   4
   2	   7
   2	   8
   2	  10
   2	  13
   2	  14
   2	  15
   2	  18
   2	  21
   2	  25
   2	  27
   2	  29
   2	  32
   2	  36
   2	  38
   2	  43
   2	  44
   2	  47
   2	  49
   2	  50
   2	  52
   2	  53
   2	  54
   2	  55
   2	  56
   2	  59
   3	   5
   3	  14
   3	  16
   3	  17
   3	  18
   3	  19
   3	  21
   3	  22
   3	  23
   3	  24
   3	  25
   3	  26
   3	  27
   3	  30
   3	  31
   3	  32
   3	  33
   3	  34
   3	  38
   3	  39
   3	  45
   3	  46
   3	  48
   3	  49
   3	  52
   3	  53
   3	  55
   3	  56
   3	  58
   4	   5
   4	   6
   4	   7
   4	   9
   4	  11
   4	  13
   4	  16
   4	  21
   4	  23
   4	  26
   4	  27
   4	  29
   4	  33
   4	  34
   4	  37
   4	  38
   4	  42
   4	  50
   4	  53
   4	  57
   4	  59
   5	   6
   5	   7
   5	   8
   5	   9
   5	  11
   5	  12
   5	  14
   5	  15
   5	  16
   5	  17
   5	  21
   5	  23
   5	  24
   5	  25
   5	  27
   5	  31
   5	  32
   5	  33
   5	  34
   5	  35
   5	  37
   5	  39
   5	  40
   5	  41
   5	  42
   5	  44
   5	  50
   5	  51
   5	  54
   5	  55
   5	  58
   5	  59
   6	   7
   6	  11
   6	  14
   6	  15
   6	  17
   6	  20
   6	  22
   6	  24
   6	  25
   6	  27
   6	  29
   6	  32
   6	  34
   6	  35
   6	  39
   6	  40
   6	  41
   6	  42
   6	  44
   6	  45
   6	  46
   6	  47
   6	  50
   6	  51
   6	  52
   7	  10
   7	  11
   7	  13
   7	  14
   7	  16
   7	  19
   7	  21
   7	  23
   7	  24
   7	  25
   7	  26
   7	  31
   7	  34
   7	  36
   7	  39
   7	  43
   7	  44
   7	  47
   7	  50
   7	  51
   7	  53
   7	  54
   7	  55
   7	  57
   8	  13
   8	  15
   8	  17
   8	  18
   8	  19
   8	  22
   8	  23
   8	  24
   8	  26
   8	  27
   8	  29
   8	  34
   8	  35
   8	  37
   8	  38
   8	  39
   8	  41
   8	  42
   8	  43
   8	  46
   8	  48
   8	  57
   8	  58
   9	  10
   9	  12
   9	  13
   9	  14
   9	  16
   9	  18
   9	  19
   9	  20
   9	  21
   9	  22
   9	  23
   9	  25
   9	  26
   9	  28
   9	  29
   9	  32
   9	  33
   9	  34
   9	  35
   9	  37
   9	  41
   9	  45
   9	  46
   9	  47
   9	  49
   9	  50
   9	  51
   9	  52
   9	  53
   9	  54
   9	  56
   9	  57
   9	  58
  10	  11
  10	  12
  10	  14
  10	  15
  10	  16
  10	  17
  10	  19
  10	  20
  10	  22
  10	  24
  10	  25
  10	  28
  10	  29
  10	  30
  10	  32
  10	  33
  10	  34
  10	  36
  10	  40
  10	  42
  10	  43
  10	  44
  10	  45
  10	  46
  10	  47
  10	  49
  10	  53
  10	  56
  10	  57
  11	  12
  11	  13
  11	  14
  11	  16
  11	  17
  11	  20
  11	  21
  11	  22
  11	  23
  11	  27
  11	  29
  11	  32
  11	  33
  11	  34
  11	  35
  11	  38
  11	  39
  11	  41
  11	  42
  11	  43
  11	  47
  11	  49
  11	  50
  11	  51
  11	  52
  11	  53
  11	  55
  11	  56
  11	  57
  11	  58
  12	  19
  12	  20
  12	  22
  12	  23
  12	  25
  12	  26
  12	  27
  12	  29
  12	  30
  12	  33
  12	  34
  12	  35
  12	  38
  12	  42
  12	  43
  12	  47
  12	  48
  12	  49
  12	  50
  12	  51
  12	  54
  12	  56
  12	  57
  12	  58
  13	  16
  13	  21
  13	  23
  13	  24
  13	  26
  13	  27
  13	  28
  13	  29
  13	  30
  13	  32
  13	  33
  13	  34
  13	  35
  13	  36
  13	  38
  13	  43
  13	  44
  13	  50
  13	  51
  13	  54
  13	  56
  13	  59
  14	  16
  14	  17
  14	  19
  14	  20
  14	  22
  14	  23
  14	  26
  14	  27
  14	  30
  14	  31
  14	  32
  14	  33
  14	  36
  14	  37
  14	  38
  14	  39
  14	  41
  14	  42
  14	  44
  14	  45
  14	  47
  14	  48
  14	  52
  14	  55
  14	  56
  14	  57
  15	  16
  15	  17
  15	  21
  15	  25
  15	  28
  15	  29
  15	  31
  15	  35
  15	  39
  15	  44
  15	  45
  15	  48
  15	  52
  15	  53
  15	  56
  16	  17
  16	  20
  16	  21
  16	  24
  16	  28
  16	  32
  16	  33
  16	  35
  16	  36
  16	  37
  16	  43
  16	  44
  16	  45
  16	  46
  16	  47
  16	  48
  16	  49
  16	  51
  16	  55
  16	  56
  16	  57
  16	  59
  17	  18
  17	  20
  17	  21
  17	  22
  17	  24
  17	  26
  17	  27
  17	  29
  17	  30
  17	  31
  17	  32
  17	  36
  17	  38
  17	  39
  17	  44
  17	  45
  17	  46
  17	  47
  17	  50
  17	  51
  17	  53
  17	  54
  17	  55
  17	  58
  17	  59
  18	  19
  18	  21
  18	  23
  18	  24
  18	  25
  18	  26
  18	  27
  18	  28
  18	  29
  18	  35
  18	  36
  18	  38
  18	  39
  18	  42
  18	  43
  18	  44
  18	  46
  18	  47
  18	  48
  18	  49
  18	  50
  18	  51
  18	  53
  18	  57
  18	  58
  19	  21
  19	  22
  19	  25
  19	  26
  19	  29
  19	  31
  19	  32
  19	  33
  19	  34
  19	  36
  19	  38
  19	  41
  19	  42
  19	  45
  19	  47
  19	  49
  19	  50
  19	  51
  19	  54
  19	  55
  19	  56
  19	  58
  20	  21
  20	  24
  20	  28
  20	  30
  20	  31
  20	  32
  20	  33
  20	  36
  20	  37
  20	  39
  20	  41
  20	  44
  20	  47
  20	  48
  20	  49
  20	  50
  20	  51
  20	  54
  20	  57
  20	  59
  21	  23
  21	  24
  21	  25
  21	  26
  21	  29
  21	  30
  21	  34
  21	  37
  21	  39
  21	  40
  21	  46
  21	  47
  21	  48
  21	  49
  21	  51
  21	  52
  21	  53
  21	  55
  22	  23
  22	  24
  22	  25
  22	  28
  22	  30
  22	  33
  22	  34
  22	  37
  22	  40
  22	  41
  22	  42
  22	  43
  22	  44
  22	  45
  22	  46
  22	  48
  22	  49
  22	  59
  23	  28
  23	  29
  23	  30
  23	  31
  23	  33
  23	  38
  23	  40
  23	  41
  23	  42
  23	  43
  23	  45
  23	  46
  23	  49
  23	  51
  23	  55
  23	  56
  23	  58
  23	  59
  24	  25
  24	  26
  24	  31
  24	  34
  24	  36
  24	  37
  24	  38
  24	  39
  24	  40
  24	  41
  24	  43
  24	  44
  24	  45
  24	  49
  24	  50
  24	  51
  24	  56
  24	  57
  25	  26
  25	  27
  25	  28
  25	  29
  25	  31
  25	  33
  25	  34
  25	  36
  25	  37
  25	  38
  25	  41
  25	  42
  25	  43
  25	  44
  25	  45
  25	  47
  25	  48
  25	  53
  25	  59
  26	  27
  26	  28
  26	  29
  26	  30
  26	  31
  26	  34
  26	  35
  26	  36
  26	  38
  26	  39
  26	  40
  26	  41
  26	  44
  26	  47
  26	  49
  26	  55
  26	  56
  26	  58
  26	  59
  27	  28
  27	  29
  27	  32
  27	  33
  27	  39
  27	  40
  27	  43
  27	  47
  27	  49
  27	  52
  27	  53
  27	  56
  27	  58
  28	  31
  28	  32
  28	  36
  28	  41
  28	  42
  28	  44
  28	  46
  28	  48
  28	  49
  28	  51
  28	  52
  28	  54
  28	  57
  29	  33
  29	  35
  29	  37
  29	  38
  29	  44
  29	  47
  29	  48
  29	  49
  29	  51
  29	  52
  29	  53
  29	  54
  29	  57
  29	  58
  29	  59
  30	  31
  30	  32
  30	  33
  30	  36
  30	  38
  30	  39
  30	  40
  30	  44
  30	  46
  30	  49
  30	  50
  30	  51
  30	  54
  30	  55
  31	  36
  31	  39
  31	  40
  31	  41
  31	  44
  31	  45
  31	  46
  31	  50
  31	  54
  31	  55
  31	  56
  31	  58
  31	  59
  32	  33
  32	  34
  32	  35
  32	  36
  32	  37
  32	  39
  32	  40
  32	  43
  32	  45
  32	  46
  32	  48
  32	  49
  32	  53
  32	  55
  32	  57
  33	  34
  33	  36
  33	  38
  33	  43
  33	  44
  33	  46
  33	  49
  33	  50
  33	  51
  33	  52
  33	  53
  33	  56
  33	  57
  33	  59
  34	  35
  34	  37
  34	  38
  34	  41
  34	  42
  34	  44
  34	  49
  34	  51
  34	  52
  34	  53
  34	  54
  35	  37
  35	  38
  35	  39
  35	  40
  35	  41
  35	  42
  35	  44
  35	  45
  35	  47
  35	  48
  35	  50
  35	  52
  35	  53
  35	  54
  35	  56
  35	  58
  35	  59
  36	  38
  36	  42
  36	  43
  36	  44
  36	  45
  36	  46
  36	  47
  36	  48
  36	  49
  36	  52
  36	  55
  36	  56
  36	  57
  36	  58
  37	  42
  37	  43
  37	  45
  37	  48
  37	  50
  37	  51
  37	  52
  37	  53
  37	  54
  37	  55
  37	  56
  37	  58
  38	  39
  38	  41
  38	  43
  38	  44
  38	  47
  38	  50
  38	  51
  38	  52
  38	  55
  38	  58
  38	  59
  39	  41
  39	  42
  39	  44
  39	  46
  39	  48
  39	  54
  39	  57
  40	  45
  40	  47
  40	  49
  40	  52
  40	  54
  40	  58
  40	  59
  41	  44
  41	  46
  41	  47
  41	  48
  41	  51
  41	  52
  41	  53
  41	  54
  41	  56
  41	  57
  41	  58
  41	  59
  42	  43
  42	  46
  42	  47
  42	  49
  42	  51
  42	  53
  42	  54
  42	  55
  42	  56
  42	  57
  42	  58
  42	  59
  43	  45
  43	  49
  43	  50
  43	  51
  43	  57
  43	  59
  44	  46
  44	  47
  44	  52
  45	  49
  45	  50
  45	  51
  45	  52
  45	  54
  45	  55
  45	  56
  45	  57
  45	  58
  45	  59
  46	  47
  46	  49
  46	  51
  46	  55
  46	  58
  46	  59
  47	  48
  47	  49
  47	  52
  47	  53
  47	  54
  47	  55
  47	  57
  47	  58
  47	  59
  48	  49
  48	  51
  48	  52
  48	  54
  48	  56
  48	  59
  49	  50
  49	  51
  49	  53
  49	  54
  49	  55
  49	  56
  49	  58
  49	  59
  50	  51
  50	  52
  50	  53
  50	  55
  50	  58
  50	  59
  51	  52
  51	  55
  51	  56
  51	  57
  51	  58
  52	  53
  52	  54
  52	  57
  52	  59
  53	  56
  53	  59
  54	  59
  55	  57
  56	  57
  57	  58
;
